c --- [ banner ] -------------------------------------------------------------
c 
c CaDiCaL Radically Simplified CDCL SAT Solver
c Copyright (c) 2016-2021 A. Biere, M. Fleury, N. Froleyks
c 
c Version 1.5.2 a5f15211db36c3956764e18194dd5bd63bf3b5e6
c g++ (GCC) 9.3.0 -Wall -Wextra -O3 -DNDEBUG
c Fri Oct 21 01:27:37 EDT 2022 Linux gra-login3 3.10.0-1160.66.1.el7.x86_64 x86_64
c 
c --- [ limit ] --------------------------------------------------------------
c 
c setting conflict limit to 200000 conflicts (due to '200000')
c 
c --- [ parsing input ] ------------------------------------------------------
c 
c reading DIMACS file from '33.cubes5559.adj'
c opening file to read '33.cubes5559.adj'
c found 'p cnf 6160 1595482' header
c parsed 1595482 clauses in 19.74 seconds process time
c closing file '33.cubes5559.adj'
c after reading 1457566824 bytes 1390.0 MB
c 
c --- [ options ] ------------------------------------------------------------
c 
c all options are set to their default value
c 
c --- [ solving ] ------------------------------------------------------------
c 
c time measured in process time since initialization
c 
c  seconds    reductions  redundant   irredundant
c          MB     restarts       trail       variables
c            level   conflicts       glue         remaining
c 
c * 19.74 1382  0 0   0    0    0  0% 0 1595422 2309 37%
c { 20.88 1432  0 0   0    0    0  0% 0 1595422 2309 37%
c i 23.52 1490 559 0   2   87   75 37% 19 1595422 2308 37%
c i 23.53 1490 540 0   2   90   77 37% 19 1595422 2307 37%
c i 23.98 1493 420 0   2  117   94 35% 18 1595422 2306 37%
c i 25.93 1504 198 0  15  269  199 30% 19 1595422 2305 37%
c - 31.04 1457 190 1  20  300  229 30% 21 391730 2305 37%
c i 31.57 1457 153 1  24  385  282 28% 18 391730 2304 37%
c i 31.95 1457 138 1  32  443  324 28% 20 391730 2303 37%
c i 31.98 1457 134 1  33  456  334 28% 20 391730 2302 37%
c i 32.64 1457 122 1  44  537  404 28% 21 391730 2301 37%
c i 34.30 1458 117 1  71  663  508 28% 24 391730 2300 37%
c i 36.42 1459 106 1 107  851  667 28% 26 391730 2299 37%
c i 36.47 1459 106 1 108  856  671 28% 26 391730 2298 37%
c i 36.66 1459 102 1 111  893  699 28% 25 391730 2297 37%
c i 37.15 1460 99 1 117  958  752 28% 26 391730 2296 37%
c } 37.59 1460 101 1 128 1000  782 28% 28 391730 2296 37%
c [ 37.59 1460  0 1 128 1000  782  0% 0 391730 2296 37%
c O 37.68 1460 21 1 128 1002  784 21% 2 391730 2296 37%
c i 37.96 1460 20 1 128 1023  802 30% 9 391730 2295 37%
c 
c  seconds    reductions  redundant  irredundant
c          MB     restarts       trail      variables
c            level   conflicts       glue        remaining
c 
c i 37.99 1460 19 1 128 1026  804 30% 9 391730 2294 37%
c i 37.99 1460 18 1 128 1027  804 30% 8 391730 2293 37%
c i 37.99 1460 18 1 128 1028  804 30% 8 391730 2292 37%
c i 38.09 1460 28 1 128 1051  824 31% 16 391730 2291 37%
c i 38.11 1460 27 1 128 1058  830 31% 16 391730 2290 37%
c i 38.19 1460 29 1 128 1079  846 31% 17 391730 2289 37%
c i 38.57 1460 30 1 128 1202  943 31% 21 391730 2288 37%
c - 39.45 1571 28 2 128 1256  868 31% 20 391679 2288 37%
c i 40.17 1571 26 2 128 1543 1102 31% 20 391679 2287 37%
c i 40.51 1571 24 2 128 1828 1338 31% 19 391679 2286 37%
c i 40.52 1571 24 2 128 1834 1343 31% 19 391679 2285 37%
c i 40.58 1571 24 2 128 1900 1389 31% 18 391679 2284 37%
c i 40.61 1571 24 2 128 1940 1418 31% 18 391679 2283 37%
c i 40.66 1571 23 2 128 1963 1432 31% 18 391679 2282 37%
c i 41.00 1571 23 2 129 2159 1590 31% 18 391679 2281 37%
c - 42.12 1568 22 3 129 2689 1613 31% 17 391658 2281 37%
c ] 42.98 1568 22 3 129 3002 1859 52% 18 391658 2281 37%
c { 42.98 1568 101 3 129 3002 1859 76% 28 391658 2281 37%
c F 43.00 1568 101 3 130 3003 1860 76% 28 391658 2281 37%
c i 43.21 1568 100 3 132 3011 1866 75% 28 391658 2280 37%
c 
c  seconds    reductions  redundant   irredundant
c          MB     restarts       trail       variables
c            level   conflicts       glue         remaining
c 
c i 44.57 1568 84 3 155 3403 2180 67% 28 391658 2279 37%
c i 45.05 1568 73 3 170 3757 2473 63% 27 391658 2252 37%
c i 45.14 1568 73 3 170 3793 2503 63% 27 391658 2243 36%
c i 45.44 1568 63 3 171 4287 2847 60% 26 391658 2234 36%
c - 46.04 1345 59 4 171 4602 2107 58% 26 345044 2233 36%
c i 46.29 1345 55 4 171 4920 2327 57% 26 345044 2232 36%
c i 46.29 1345 55 4 171 4922 2328 57% 26 345044 2231 36%
c i 46.30 1345 55 4 171 4923 2328 57% 25 345044 2230 36%
c i 46.35 1345 55 4 171 4936 2340 57% 25 345044 2229 36%
c 2 47.39 1345 55 4 175 5000 3396 57% 25 345018 2222 36%
c p 53.85 1345 55 4 175 5000 6085 57% 25 345018 2184 35%
c d 54.36 1345 55 4 175 5000 5962 57% 25 344902 2182 35%
c # 55.50 1345 48 4 175 6005 6685 55% 24 344902 2182 35%
c - 56.95 1346 44 5 193 6909 2697 54% 23 344902 2182 35%
c } 57.00 1346 43 5 193 7003 2774 53% 23 344902 2182 35%
c [ 57.00 1346 22 5 193 7003 2774 52% 18 344902 2182 35%
c - 58.27 1347 24 6 195 9676 2927 49% 19 344902 2182 35%
c I 58.49 1347 25 6 195 10006 3177 49% 21 344902 2182 35%
c - 67.34 1347 27 7 197 12907 3762 48% 21 344902 2182 35%
c p 76.17 1347 26 7 198 15000 9030 47% 21 344902 2182 35%
c 
c  seconds    reductions   redundant   irredundant
c          MB     restarts        trail       variables
c            level    conflicts       glue         remaining
c 
c ] 76.29 1347 26 7 198 15007 9035 47% 21 344902 2182 35%
c { 76.29 1347 43 7 198 15007 9035 53% 23 344902 2182 35%
c B 76.40 1347 43 7 198 15008 9036 53% 23 344902 2182 35%
c - 83.00 1347 43 8 341 16597 4966 52% 24 344902 2182 35%
c s 86.94 1347 38 8 359 18867 6588 51% 22 343437 2182 35%
c v 92.18 1347 38 8 359 18867 6588 51% 22 343420 2182 35%
c t 92.34 1347 38 8 359 18867 6579 51% 22 343410 2182 35%
c e 93.55 1348 38 8 359 18867 6298 51% 22 341313 986 16%
c s 93.68 1348 38 8 359 18867 6298 51% 22 341101 986 16%
c } 97.05 1349 35 8 366 20312 7238 66% 21 341101 986 16%
c 1 97.05 1349 35 8 366 20312 7238 66% 21 341101 986 16%
c 
c --- [ writing output ] -----------------------------------------------------
c 
c writing simplified CNF to DIMACS file 'simp/33.cubes5559.adj.simp1'
c * 97.05 1349 35 8 366 20312 7238 66% 21 341101 986 16%
c opening file to write 'simp/33.cubes5559.adj.simp1'
c writing 'p cnf 6160 341101' header
c closing file 'simp/33.cubes5559.adj.simp1'
c after writing 150262048 bytes 143.3 MB
c wrote 341101 clauses in 1.21 seconds process time
c 
c --- [ writing extension ] --------------------------------------------------
c 
c writing extension stack to 'simp/33.cubes5559.adj.ext1'
c opening file to write 'simp/33.cubes5559.adj.ext1'
c closing file 'simp/33.cubes5559.adj.ext1'
c after writing 79073 bytes 0.1 MB
c wrote 3579 witnesses in 0.00 seconds process time
c 
c --- [ result ] -------------------------------------------------------------
c 
s SATISFIABLE
c 
c --- [ run-time profiling ] -------------------------------------------------
c 
c process time taken by individual solving procedures
c (percentage relative to process time for solving)
c 
c        59.57   77.06% search
c        35.99   46.56% unstable
c        22.44   29.03% stable
c        19.74   25.54% parse
c        17.74   22.94% simplify
c         8.60   11.12% probe
c         5.35    6.92% vivify
c         2.29    2.96% elim
c         1.13    1.47% lucky
c         0.25    0.32% subsume
c         0.10    0.13% ternary
c   =================================
c        77.30   78.67% solve
c 
c last line shows process time for solving
c (percentage relative to total process time)
c 
c --- [ statistics ] ---------------------------------------------------------
c 
c chronological:              4211        20.73 %  of conflicts
c conflicts:                 20312       262.76    per second
c decisions:                 48851       631.94    per second
c eliminated:                 1196        19.42 %  of all variables
c fixed:                       825        13.39 %  of all variables
c learned:                   19819        97.57 %  per conflict
c learned_lits:            3218214       100.00 %  learned literals
c minimized:                     0         0.00 %  learned literals
c shrunken:                1953390        60.70 %  learned literals
c minishrunken:             281906         8.76 %  learned literals
c propagations:            2850194         0.04 M  per second
c reduced:                    7451        36.68 %  per conflict
c rephased:                      5      4062.40    interval
c restarts:                    366        55.50    interval
c stabilizing:                   2        49.26 %  of conflicts
c substituted:                   9         0.15 %  of all variables
c subsumed:                   6780         0.20 %  of all clauses
c strengthened:               4573         0.13 %  of all clauses
c ternary:                    2096         0.55 %  of resolved
c vivified:                     28         0.00 %  of all clauses
c weakened:                   2754         3.02    average size
c 
c seconds are measured in process time for solving
c 
c --- [ resources ] ----------------------------------------------------------
c 
c total process time since initialization:        98.26    seconds
c total real time since initialization:          102.34    seconds
c maximum resident set size of process:         1739.80    MB
c 
c --- [ shutting down ] ------------------------------------------------------
c 
c exit 10
WARNING! DIMACS header mismatch: wrong number of variables.
============================[ Problem Statistics ]=============================
|                                                                             |
|  Number of variables:          3758                                         |
|  Number of clauses:          341101                                         |
|  Parse time:                   2.02 s                                       |
|  Simplification time:          0.04 s                                       |
|                                                                             |
============================[ Search Statistics ]====================================================
| Conflicts |          ORIGINAL         |          LEARNT          | Num Sols |      SUBGRAPHS      |
|           |    Vars  Clauses Literals |    Limit  Clauses Lit/Cl |          | Canonical Noncanon. |
=====================================================================================================
|       100 |    3664   341101 32749096 |     2000      100    130 |        0 |        18         0 |
|       258 |    3664   341109 32749269 |     2000      258    114 |        0 |        30         8 |
|       493 |    3664   341119 32749694 |     2000      493    103 |        0 |        42        18 |
|       838 |    3664   341127 32749978 |     2000      838     91 |        0 |        57        26 |
|      1385 |    3664   341168 32750716 |     2000     1385     87 |        0 |        91        67 |
|      2150 |    3664   341174 32750829 |     3600     1150     61 |        0 |       100        73 |
|      3438 |    3664   341323 32753606 |     3600     2438     70 |        0 |       167       222 |
|      5253 |    3664   341430 32756435 |     5000     2453     55 |        0 |       223       329 |
|      8302 |    3664   341917 32767880 |     6302     3004     41 |        0 |       414       816 |
|     12421 |    3664   342192 32773564 |     7551     3972     46 |        0 |       602      1091 |
|     18296 |    3664   342301 32775767 |     8776     6072     58 |        0 |       667      1200 |
|     28334 |    3664   343690 32801319 |    11216     6750     51 |        0 |       973      2589 |
|     42267 |    3664   344649 32818798 |    13610     8877     49 |        0 |      1321      3548 |
|     63070 |    3664   345991 32843362 |    16005    15475     65 |        0 |      1945      4890 |
|     95683 |    3664   349412 32894982 |    20814    12497     41 |        0 |      3337      8311 |
|    140497 |    3664   350437 32914035 |    24409    24306     69 |        0 |      3824      9336 |
|    211972 |    3664   356228 33012745 |    30409    28781     73 |        0 |      5835     15127 |
|    314922 |    3664   360652 33077219 |    37605    31527     65 |        0 |      7710     19551 |
|    466332 |    3664   364273 33127690 |    46017    38749     71 |        0 |      9597     23172 |
|    690585 |    3664   366843 33168528 |    56809    34394     50 |        0 |     11028     25742 |
|   1036357 |    3664   380090 33347691 |    70018    34775     35 |        0 |     14678     38989 |
|   1554743 |    3647   366784 33214944 |    85400    51143     67 |        0 |     22138     58587 |
|   2308758 |    3647   372617 33338751 |   103615   100373     77 |        0 |     24770     64420 |
|   3464323 |    3647   405908 33965258 |   127610   105933     67 |        0 |     37168     97711 |
|   5163044 |    3647   421218 34287972 |   156418   107862     55 |        0 |     43288    113021 |
|   7743923 |    3634   433070 34504236 |   191222   177345     61 |        0 |     56052    168784 |
|  11615667 |    3613   374118 33325933 |   187739   182806     79 |        3 |     81789    252850 |
=====================================================================================================
Number of solutions   : 3
Canonical subgraphs   : 83295          (14 /sec)
          order  3    : 1              (200000 /sec)
          order  4    : 1              (500000 /sec)
          order  5    : 1              (250000 /sec)
          order  6    : 1              (55556 /sec)
          order  7    : 1              (8929 /sec)
          order  8    : 2              (1366 /sec)
          order  9    : 6              (315 /sec)
          order 10    : 26             (97 /sec)
          order 11    : 114            (31 /sec)
          order 12    : 627            (10 /sec)
          order 13    : 4868           (10 /sec)
          order 14    : 16393          (13 /sec)
          order 15    : 54677          (15 /sec)
          order 16    : 4909           (15 /sec)
          order 17    : 1293           (12 /sec)
          order 18    : 196            (10 /sec)
          order 19    : 80             (11 /sec)
          order 20    : 48             (11 /sec)
          order 21    : 48             (11 /sec)
          order 22    : 3              (1 /sec)
Noncanonical subgraphs: 259987         (226 /sec)
          order  3    : 0              (-nan /sec)
          order  4    : 0              (-nan /sec)
          order  5    : 0              (-nan /sec)
          order  6    : 0              (-nan /sec)
          order  7    : 0              (-nan /sec)
          order  8    : 0              (-nan /sec)
          order  9    : 0              (-nan /sec)
          order 10    : 0              (-nan /sec)
          order 11    : 0              (-nan /sec)
          order 12    : 0              (-nan /sec)
          order 13    : 11685          (7720 /sec)
          order 14    : 77071          (1149 /sec)
          order 15    : 79201          (816 /sec)
          order 16    : 91212          (94 /sec)
          order 17    : 712            (85 /sec)
          order 18    : 60             (47 /sec)
          order 19    : 0              (-nan /sec)
          order 20    : 0              (-nan /sec)
          order 21    : 0              (-nan /sec)
Canonicity checking   : 5916.25 s
Noncanonicity checking: 1150.85 s
Total canonicity time : 7067.1 s
database reductions   : 200
restarts              : 18361
conflicts             : 12391671       (885 /sec)
decisions             : 15115832       (0.00 % random) (1079 /sec)
propagations          : 645328995      (46071 /sec)
conflict literals     : 1249647334     (55.96 % deleted)
actual reward         : 0.235243
Memory used           : 632.00 MB
CPU time              : 14007.2 s

UNSATISFIABLE
